n=40;
demand=2;
horizon=40;
est=[25,1,5,32,1,7,13,32,1,39,26,18,24,3,21,0,33,16,32,8,30,20,27,35,0,8,30,22,25,21,13,36,32,38,32,21,30,13,36,37];
processing_time=[13,39,5,8,19,7,14,2,38,1,7,3,8,34,3,9,2,11,6,5,4,9,9,2,7,5,4,6,9,15,19,4,6,2,5,9,1,7,1,3];
lct=[39,40,17,40,34,14,37,35,40,40,38,33,37,40,26,34,40,40,38,24,38,34,38,39,40,33,39,31,35,38,34,40,40,40,38,38,37,26,37,40];
